1111100 AB
351 379 406 422 438 455 472 489 507 525 556 587 618 650 682 714 730 746 762 778 794 810 826 847 868 889 911 933 955 976 998 1015 1031 1047 1063 1080 1096 1113 1129 1146 1163 1186 1219 1253 1287 1318 1349 1379 1410
1111100 BA
351 378 406 437 455 471 488 505 522 540 556 587 618 649 681 713 745 761 777 793 809 825 841 857 878 899 920 942 964 986 1007 1029 1046 1062 1078 1094 1111 1127 1144 1160 1176 1193 1216 1249 1280 1314 1345 1376 1406 1437
0000011 AB
351 378 405 433 463 493 523 553 583 613 643 673 703 733 753 773 793 813 833 853 873 893 913 933 953 983 1013 1033 1053 1073 1093 1113 1133 1153 1183 1213 1243 1273 1303 1333 1362 1391 1419 6
0000011 BA
351 377 404 433 463 493 523 553 583 613 643 673 703 733 763 783 803 823 843 863 883 903 923 943 963 983 1013 1043 1063 1083 1103 1123 1143 1163 1183 1213 1243 1271 1299 1329 1359 1388 1417 5
